(set-logic QF_BV)
(declare-fun _substvar_208_ () (_ BitVec 31))
(declare-fun _substvar_197_ () (_ BitVec 31))
(declare-fun _substvar_203_ () (_ BitVec 31))
(declare-fun _substvar_294_ () Bool)
(declare-fun _substvar_146_ () (_ BitVec 1))
(declare-fun _substvar_173_ () (_ BitVec 31))
(declare-fun _substvar_212_ () (_ BitVec 31))
(declare-fun _substvar_192_ () (_ BitVec 31))
(declare-fun _substvar_254_ () Bool)
(assert (and true true true true true true true true true true true true true true true true true true true true true true true true true true true true true true true true true true true true true true true true true true true true true true true true true true true true true true true true true true true true true true true true true true true true true true true true true true true true true true true true true true true true true true true true true true true true true true true true true true true true true true true true true true true true true true true true true true true true true true true true true true (ite _substvar_254_ (= _substvar_212_ (_ bv0 31)) (= _substvar_212_ (concat (_ bv0 30) _substvar_146_))) (= _substvar_192_ (concat ((_ extract 29 0) _substvar_212_) (bvxor ((_ extract 30 30) _substvar_212_) ((_ extract 27 27) _substvar_212_)))) (= _substvar_203_ (concat ((_ extract 29 0) _substvar_192_) (bvxor ((_ extract 30 30) _substvar_192_) (_ bv0 1)))) (ite _substvar_294_ (= _substvar_208_ (_ bv0 31)) (= _substvar_208_ (concat ((_ extract 29 0) _substvar_203_) (_ bv0 1)))) (= _substvar_173_ (concat (_ bv0 30) (bvxor (_ bv0 1) ((_ extract 27 27) _substvar_208_)))) (= _substvar_197_ (concat ((_ extract 29 0) _substvar_173_) (_ bv0 1))) true true true (= (= (_ bv0 31) _substvar_197_) false)))
(check-sat)
(exit)
